c Result of efficient AIG-to-CNF conversion using package CNF
p cnf 284 900
-2 -3 205 0
-2 128 205 0
2 -205 0
2 3 -128 0
3 4 -114 0
3 -4 114 0
-3 -4 -114 0
-3 4 114 0
4 5 -101 0
4 -5 101 0
-4 -5 -101 0
-4 5 101 0
5 6 -85 0
5 -6 85 0
-5 -6 -85 0
-5 6 85 0
-6 7 69 0
6 -7 0
6 -69 0
7 -8 -50 0
-7 8 0
-7 50 0
8 -251 -9 0
-8 251 0
-8 9 0
9 -10 29 0
9 -11 22 29 0
-9 -29 0
-9 10 -22 0
-9 10 11 0
-10 247 279 0
10 -247 0
10 -279 0
-11 12 -13 19 0
-11 12 13 14 0
11 -12 0
11 13 -14 0
11 -13 -19 0
-12 248 280 0
12 -248 0
12 -280 0
-13 249 281 0
13 -249 0
13 -281 0
14 15 -16 0
14 -15 -18 0
-14 -15 18 0
-14 15 16 0
-15 250 282 0
15 -250 0
15 -282 0
16 -266 -17 0
16 -265 17 0
-16 266 -17 0
-16 265 17 0
-17 251 283 0
17 -251 0
17 -283 0
18 -268 -17 0
18 -267 17 0
-18 268 -17 0
-18 267 17 0
19 15 -20 0
19 -15 -21 0
-19 -15 21 0
-19 15 20 0
20 -270 -17 0
20 -269 17 0
-20 270 -17 0
-20 269 17 0
21 -272 -17 0
21 -271 17 0
-21 272 -17 0
-21 271 17 0
22 -12 13 23 0
22 -12 -13 26 0
-22 12 0
-22 13 -23 0
-22 -13 -26 0
23 15 -24 0
23 -15 -25 0
-23 -15 25 0
-23 15 24 0
24 -274 -17 0
24 -273 17 0
-24 274 -17 0
-24 273 17 0
25 -276 -17 0
25 -275 17 0
-25 276 -17 0
-25 275 17 0
26 15 -27 0
26 -15 -28 0
-26 -15 28 0
-26 15 27 0
27 -278 -17 0
27 -277 17 0
-27 278 -17 0
-27 277 17 0
28 -280 -17 0
28 -279 17 0
-28 280 -17 0
-28 279 17 0
-29 10 30 0
29 -10 0
29 -30 0
-30 31 36 41 46 0
30 -46 0
30 -31 0
30 -41 0
30 -36 0
-31 236 237 32 33 0
31 -236 0
31 -33 0
31 -32 0
31 -237 0
-32 220 221 222 0
32 -220 0
32 -222 0
32 -221 0
-33 273 274 34 35 0
33 -273 0
33 -35 0
33 -34 0
33 -274 0
-34 223 224 225 232 0
34 -232 0
34 -225 0
34 -223 0
34 -224 0
-35 246 252 257 258 0
35 -258 0
35 -257 0
35 -246 0
35 -252 0
-36 238 239 37 39 0
36 -238 0
36 -39 0
36 -37 0
36 -239 0
-37 230 231 38 0
37 -38 0
37 -231 0
37 -230 0
-38 234 235 240 241 0
38 -241 0
38 -240 0
38 -234 0
38 -235 0
-39 226 227 233 40 0
39 -40 0
39 -233 0
39 -226 0
39 -227 0
-40 228 229 0
40 -228 0
40 -229 0
-41 263 269 270 42 0
41 -42 0
41 -270 0
41 -263 0
41 -269 0
-42 275 276 43 44 0
42 -275 0
42 -44 0
42 -43 0
42 -276 0
-43 271 272 277 278 0
43 -278 0
43 -277 0
43 -271 0
43 -272 0
-44 264 265 266 45 0
44 -45 0
44 -266 0
44 -264 0
44 -265 0
-45 242 253 254 0
45 -242 0
45 -254 0
45 -253 0
-46 243 244 245 47 0
46 -47 0
46 -245 0
46 -243 0
46 -244 0
-47 267 268 48 49 0
47 -267 0
47 -49 0
47 -48 0
47 -268 0
-48 259 260 0
48 -259 0
48 -260 0
-49 255 256 261 262 0
49 -262 0
49 -261 0
49 -255 0
49 -256 0
50 -250 -51 0
-50 250 0
-50 51 0
51 -10 30 -67 0
51 10 30 -52 0
-51 -30 0
-51 10 52 0
-51 -10 67 0
52 12 -53 0
52 -12 -60 0
-52 -12 60 0
-52 12 53 0
53 13 -54 0
53 -13 -57 0
-53 -13 57 0
-53 13 54 0
54 15 -55 0
54 -15 -56 0
-54 -15 56 0
-54 15 55 0
55 -267 -17 0
55 -266 17 0
-55 267 -17 0
-55 266 17 0
56 -269 -17 0
56 -268 17 0
-56 269 -17 0
-56 268 17 0
57 15 -58 0
57 -15 -59 0
-57 -15 59 0
-57 15 58 0
58 -271 -17 0
58 -270 17 0
-58 271 -17 0
-58 270 17 0
59 -273 -17 0
59 -272 17 0
-59 273 -17 0
-59 272 17 0
60 13 -61 0
60 -13 -64 0
-60 -13 64 0
-60 13 61 0
61 15 -62 0
61 -15 -63 0
-61 -15 63 0
-61 15 62 0
62 -275 -17 0
62 -274 17 0
-62 275 -17 0
-62 274 17 0
63 -277 -17 0
63 -276 17 0
-63 277 -17 0
-63 276 17 0
64 15 -65 0
64 -15 -66 0
-64 -15 66 0
-64 15 65 0
65 -279 -17 0
65 -278 17 0
-65 279 -17 0
-65 278 17 0
66 -281 -17 0
66 -280 17 0
-66 281 -17 0
-66 280 17 0
67 12 13 -68 0
-67 -12 0
-67 -13 0
-67 68 0
68 250 282 -283 0
-68 283 0
-68 -282 0
-68 -250 0
69 -70 -84 0
-69 70 0
-69 84 0
-70 250 71 0
-70 9 71 0
70 -71 0
70 -250 -9 0
71 -251 -72 0
-71 251 0
-71 72 0
72 -10 30 -81 0
72 10 30 -73 0
-72 -30 0
-72 10 73 0
-72 -10 81 0
73 12 -74 0
73 -12 -78 0
-73 -12 78 0
-73 12 74 0
74 13 -75 0
74 -13 -77 0
-74 -13 77 0
-74 13 75 0
75 -15 -55 0
75 15 -76 0
-75 15 76 0
-75 -15 55 0
76 -265 -17 0
76 -264 17 0
-76 265 -17 0
-76 264 17 0
77 15 -56 0
77 -15 -58 0
-77 -15 58 0
-77 15 56 0
78 13 -79 0
78 -13 -80 0
-78 -13 80 0
-78 13 79 0
79 15 -59 0
79 -15 -62 0
-79 -15 62 0
-79 15 59 0
80 15 -63 0
80 -15 -65 0
-80 -15 65 0
-80 15 63 0
81 12 13 -82 0
-81 -12 0
-81 -13 0
-81 82 0
82 15 -66 0
82 -15 -83 0
-82 15 66 0
-82 -15 83 0
-83 283 -17 0
-83 282 283 0
83 -283 0
83 -282 17 0
84 -249 -51 0
-84 249 0
-84 51 0
85 86 -100 0
85 -86 100 0
-85 -86 -100 0
-85 86 100 0
-86 9 87 99 0
-86 249 -87 -99 0
-86 249 87 99 0
-86 9 -87 -99 0
86 87 -99 0
86 -87 99 0
86 -249 -9 0
87 -251 30 -88 96 0
-87 -30 0
-87 -96 0
-87 251 0
-87 88 0
-88 10 -12 93 0
-88 10 12 89 0
88 -10 0
88 12 -89 0
88 -12 -93 0
89 13 -90 0
89 -13 -92 0
-89 -13 92 0
-89 13 90 0
90 -15 -16 0
90 15 -91 0
-90 15 91 0
-90 -15 16 0
91 -264 -17 0
91 -263 17 0
-91 264 -17 0
-91 263 17 0
92 15 -18 0
92 -15 -20 0
-92 -15 20 0
-92 15 18 0
93 13 -94 0
93 -13 -95 0
-93 -13 95 0
-93 13 94 0
94 15 -21 0
94 -15 -24 0
-94 -15 24 0
-94 15 21 0
95 15 -25 0
95 -15 -27 0
-95 -15 27 0
-95 15 25 0
96 -10 -13 0
96 -10 -12 0
96 -10 97 0
-96 10 0
-96 12 13 -97 0
97 15 -28 0
97 -15 -98 0
-97 -15 98 0
-97 15 28 0
98 -282 -17 0
98 -281 17 0
-98 282 -17 0
-98 281 17 0
99 -250 -72 0
-99 250 0
-99 72 0
100 -248 -51 0
-100 248 0
-100 51 0
101 -102 -104 0
101 -104 -108 0
101 -102 -108 0
-101 102 108 0
-101 104 108 0
-101 102 104 0
102 7 -103 0
102 -7 103 0
-102 -7 -103 0
-102 7 103 0
103 70 -84 0
103 -70 84 0
-103 -70 -84 0
-103 70 84 0
104 -248 -105 0
-104 248 0
-104 105 0
105 12 29 -107 0
105 -12 29 -106 0
-105 -29 0
-105 12 107 0
-105 -12 106 0
106 13 -95 0
106 -13 -97 0
-106 -13 97 0
-106 13 95 0
107 13 -92 0
107 -13 -94 0
-107 -13 94 0
-107 13 92 0
108 -109 -110 0
108 -110 -111 0
108 -109 -111 0
-108 109 111 0
-108 110 111 0
-108 109 110 0
109 8 -50 0
109 -8 50 0
-109 -8 -50 0
-109 8 50 0
110 -249 -105 0
-110 249 0
-110 105 0
111 -112 -113 0
-111 112 0
-111 113 0
112 -251 -51 0
-112 251 0
-112 51 0
113 -250 -105 0
-113 250 0
-113 105 0
114 -115 -117 0
-114 115 0
-114 117 0
115 108 -116 0
115 -108 116 0
-115 -108 -116 0
-115 108 116 0
116 102 -104 0
116 -102 104 0
-116 -102 -104 0
-116 102 104 0
117 -118 -120 0
117 -120 -124 0
117 -118 -124 0
-117 118 124 0
-117 120 124 0
-117 118 120 0
118 111 -119 0
118 -111 119 0
-118 -111 -119 0
-118 111 119 0
119 109 -110 0
119 -109 110 0
-119 -109 -110 0
-119 109 110 0
120 -248 -121 0
-120 248 0
-120 121 0
121 -12 29 -123 0
121 12 29 -122 0
-121 -29 0
-121 12 122 0
-121 -12 123 0
122 13 -77 0
122 -13 -79 0
-122 -13 79 0
-122 13 77 0
123 13 -80 0
123 -13 -82 0
-123 -13 82 0
-123 13 80 0
124 -125 -126 0
124 -126 -127 0
124 -125 -127 0
-124 125 127 0
-124 126 127 0
-124 125 126 0
125 112 -113 0
125 -112 113 0
-125 -112 -113 0
-125 112 113 0
126 -249 -121 0
-126 249 0
-126 121 0
127 -250 -251 -105 -121 0
-127 121 0
-127 250 0
-127 105 0
-127 251 0
128 129 -188 0
128 -129 188 0
-128 -129 -188 0
-128 129 188 0
129 130 -170 0
129 -130 170 0
-129 -130 -170 0
-129 130 170 0
130 -85 131 0
130 85 -131 0
-130 85 131 0
-130 -85 -131 0
-131 132 167 0
131 -132 0
131 -167 0
132 -133 -149 0
-132 133 0
-132 149 0
133 -283 -134 0
-133 283 0
-133 134 0
134 -10 29 0
134 29 -135 0
-134 -29 0
-134 10 135 0
135 12 -136 0
135 -12 -143 146 0
-135 -12 -146 0
-135 12 136 0
-135 -12 143 0
136 13 -137 0
136 -13 -140 0
-136 -13 140 0
-136 13 137 0
137 15 -138 0
137 -15 -139 0
-137 -15 139 0
-137 15 138 0
138 -234 -17 0
138 -233 17 0
-138 234 -17 0
-138 233 17 0
139 -236 -17 0
139 -235 17 0
-139 236 -17 0
-139 235 17 0
140 15 -141 0
140 -15 -142 0
-140 -15 142 0
-140 15 141 0
141 -238 -17 0
141 -237 17 0
-141 238 -17 0
-141 237 17 0
142 -240 -17 0
142 -239 17 0
-142 240 -17 0
-142 239 17 0
-143 13 -15 145 0
-143 13 15 144 0
143 -13 0
143 15 -144 0
143 -15 -145 0
144 -242 -17 0
144 -241 17 0
-144 242 -17 0
-144 241 17 0
145 -244 -17 0
145 -243 17 0
-145 244 -17 0
-145 243 17 0
146 -13 15 147 0
146 -13 -15 148 0
-146 13 0
-146 15 -147 0
-146 -15 -148 0
147 -246 -17 0
147 -245 17 0
-147 246 -17 0
-147 245 17 0
148 -248 -17 0
148 -247 17 0
-148 248 -17 0
-148 247 17 0
149 -282 -150 0
-149 282 0
-149 150 0
150 -10 30 -165 0
150 10 30 -151 0
-150 -30 0
-150 10 151 0
-150 -10 165 0
151 12 -152 0
151 -12 -159 162 0
-151 -12 -162 0
-151 12 152 0
-151 -12 159 0
152 13 -153 0
152 -13 -156 0
-152 -13 156 0
-152 13 153 0
153 15 -154 0
153 -15 -155 0
-153 -15 155 0
-153 15 154 0
154 -235 -17 0
154 -234 17 0
-154 235 -17 0
-154 234 17 0
155 -237 -17 0
155 -236 17 0
-155 237 -17 0
-155 236 17 0
156 15 -157 0
156 -15 -158 0
-156 -15 158 0
-156 15 157 0
157 -239 -17 0
157 -238 17 0
-157 239 -17 0
-157 238 17 0
158 -241 -17 0
158 -240 17 0
-158 241 -17 0
-158 240 17 0
-159 13 -15 161 0
-159 13 15 160 0
159 -13 0
159 15 -160 0
159 -15 -161 0
160 -243 -17 0
160 -242 17 0
-160 243 -17 0
-160 242 17 0
161 -245 -17 0
161 -244 17 0
-161 245 -17 0
-161 244 17 0
162 -13 15 163 0
162 -13 -15 164 0
-162 13 0
-162 15 -163 0
-162 -15 -164 0
163 -247 -17 0
163 -246 17 0
-163 247 -17 0
-163 246 17 0
164 -249 -17 0
164 -248 17 0
-164 249 -17 0
-164 248 17 0
165 12 13 15 -166 0
-165 -15 0
-165 166 0
-165 -12 0
-165 -13 0
-166 251 -17 0
-166 250 251 0
166 -251 0
166 -250 17 0
167 -168 -169 0
-167 168 0
-167 169 0
-168 71 134 0
-168 282 71 0
168 -71 0
168 -282 -134 0
169 -281 -150 0
-169 281 0
-169 150 0
170 -171 -173 0
170 -173 -182 0
170 -171 -182 0
-170 171 182 0
-170 173 182 0
-170 171 173 0
171 132 -172 0
171 -132 172 0
-171 -132 -172 0
-171 132 172 0
172 168 -169 0
172 -168 169 0
-172 -168 -169 0
-172 168 169 0
173 -280 -174 0
-173 280 0
-173 174 0
174 12 29 -179 0
174 -12 29 -175 0
-174 -29 0
-174 12 179 0
-174 -12 175 0
175 13 -176 0
175 -13 -177 0
-175 -13 177 0
-175 13 176 0
176 15 -145 0
176 -15 -147 0
-176 -15 147 0
-176 15 145 0
177 15 -148 0
177 -15 -178 0
-177 -15 178 0
-177 15 148 0
178 -250 -17 0
178 -249 17 0
-178 250 -17 0
-178 249 17 0
179 13 -180 0
179 -13 -181 0
-179 -13 181 0
-179 13 180 0
180 15 -139 0
180 -15 -141 0
-180 -15 141 0
-180 15 139 0
181 15 -142 0
181 -15 -144 0
-181 -15 144 0
-181 15 142 0
182 -183 -184 0
182 -184 -185 0
182 -183 -185 0
-182 183 185 0
-182 184 185 0
-182 183 184 0
183 133 -149 0
183 -133 149 0
-183 -133 -149 0
-183 133 149 0
184 -281 -174 0
-184 281 0
-184 174 0
185 -186 -187 0
-185 186 0
-185 187 0
186 -283 -150 0
-186 283 0
-186 150 0
187 -282 -174 0
-187 282 0
-187 174 0
188 -189 -191 0
-188 189 0
-188 191 0
189 182 -190 0
189 -182 190 0
-189 -182 -190 0
-189 182 190 0
190 171 -173 0
190 -171 173 0
-190 -171 -173 0
-190 171 173 0
191 -192 -194 0
191 -194 -202 0
191 -192 -202 0
-191 192 202 0
-191 194 202 0
-191 192 194 0
192 185 -193 0
192 -185 193 0
-192 -185 -193 0
-192 185 193 0
193 183 -184 0
193 -183 184 0
-193 -183 -184 0
-193 183 184 0
194 -280 -195 0
-194 280 0
-194 195 0
195 -12 29 -199 0
195 12 29 -196 0
-195 -29 0
-195 12 196 0
-195 -12 199 0
196 13 -197 0
196 -13 -198 0
-196 -13 198 0
-196 13 197 0
197 15 -155 0
197 -15 -157 0
-197 -15 157 0
-197 15 155 0
198 15 -158 0
198 -15 -160 0
-198 -15 160 0
-198 15 158 0
199 13 -200 0
199 -13 -201 0
-199 -13 201 0
-199 13 200 0
200 15 -161 0
200 -15 -163 0
-200 -15 163 0
-200 15 161 0
201 15 -164 0
201 -15 -166 0
-201 15 164 0
-201 -15 166 0
202 -127 -203 0
202 -203 -204 0
202 -127 -204 0
-202 127 204 0
-202 203 204 0
-202 127 203 0
203 186 -187 0
203 -186 187 0
-203 -186 -187 0
-203 186 187 0
204 -281 -195 0
-204 281 0
-204 195 0
205 206 207 212 -219 0
-205 219 0
-205 -212 0
-205 -206 0
-205 -207 0
206 115 -117 0
206 -115 117 0
-206 -115 -117 0
-206 115 117 0
207 -248 127 -208 -209 0
207 -248 -127 208 -209 0
-207 209 0
-207 -127 -208 0
-207 248 0
-207 127 208 0
208 125 -126 0
208 -125 126 0
-208 -125 -126 0
-208 125 126 0
209 -12 29 -211 0
209 12 29 -210 0
-209 -29 0
-209 12 210 0
-209 -12 211 0
210 13 -19 0
210 -13 -23 0
-210 -13 23 0
-210 13 19 0
211 13 -26 0
211 -13 15 -98 0
-211 13 26 0
-211 -13 -15 0
-211 -13 98 0
212 -249 -213 -215 -216 0
-212 216 0
-212 249 0
-212 213 0
-212 215 0
213 -124 207 214 0
213 124 207 -214 0
-213 -207 0
-213 -124 -214 0
-213 124 214 0
214 118 -120 0
214 -118 120 0
-214 -118 -120 0
-214 118 120 0
-215 121 209 0
-215 250 251 0
-215 251 209 0
-215 250 121 0
215 -251 -121 0
215 -250 -209 0
216 -12 29 -218 0
216 12 29 -217 0
-216 -29 0
-216 12 217 0
-216 -12 218 0
217 13 -57 0
217 -13 -61 0
-217 -13 61 0
-217 13 57 0
218 13 -64 0
218 -13 -68 0
-218 -13 68 0
-218 13 64 0
219 189 -191 0
219 -189 191 0
-219 -189 -191 0
-219 189 191 0
-284 0
2 0

